c Reduced graph for p42_1 generated by Cyril Grelier
p edge 137 1174
v 1 568
v 2 568
v 3 506
v 4 506
v 5 461
v 6 461
v 7 421
v 8 421
v 9 335
v 10 335
v 11 328
v 12 328
v 13 314
v 14 314
v 15 248
v 16 248
v 17 244
v 18 244
v 19 220
v 20 220
v 21 215
v 22 215
v 23 214
v 24 214
v 25 201
v 26 201
v 27 178
v 28 178
v 29 171
v 30 171
v 31 170
v 32 170
v 33 158
v 34 158
v 35 157
v 36 157
v 37 155
v 38 155
v 39 132
v 40 132
v 41 130
v 42 130
v 43 128
v 44 128
v 45 128
v 46 128
v 47 127
v 48 127
v 49 125
v 50 125
v 51 122
v 52 122
v 53 120
v 54 120
v 55 116
v 56 116
v 57 111
v 58 111
v 59 108
v 60 108
v 61 105
v 62 105
v 63 99
v 64 99
v 65 95
v 66 95
v 67 90
v 68 90
v 69 86
v 70 86
v 71 80
v 72 80
v 73 74
v 74 74
v 75 71
v 76 71
v 77 66
v 78 66
v 79 66
v 80 66
v 81 64
v 82 64
v 83 51
v 84 51
v 85 44
v 86 44
v 87 43
v 88 41
v 89 41
v 90 40
v 91 40
v 92 40
v 93 40
v 94 38
v 95 38
v 96 38
v 97 38
v 98 35
v 99 35
v 100 34
v 101 34
v 102 32
v 103 32
v 104 30
v 105 30
v 106 28
v 107 28
v 108 26
v 109 26
v 110 26
v 111 26
v 112 25
v 113 25
v 114 25
v 115 25
v 116 24
v 117 24
v 118 24
v 119 23
v 120 23
v 121 20
v 122 20
v 123 20
v 124 18
v 125 18
v 126 17
v 127 17
v 128 14
v 129 13
v 130 13
v 131 12
v 132 12
v 133 12
v 134 10
v 135 10
v 136 10
v 137 8
e 1 10
e 1 15
e 1 17
e 1 23
e 1 25
e 1 34
e 1 35
e 1 37
e 1 60
e 1 62
e 1 64
e 1 65
e 1 70
e 1 89
e 1 101
e 1 109
e 1 113
e 1 114
e 1 126
e 2 9
e 2 16
e 2 18
e 2 24
e 2 26
e 2 33
e 2 36
e 2 38
e 2 59
e 2 61
e 2 63
e 2 66
e 2 69
e 2 88
e 2 100
e 2 108
e 2 112
e 2 115
e 2 127
e 3 7
e 3 9
e 3 11
e 3 21
e 3 25
e 3 27
e 3 29
e 3 41
e 3 43
e 3 48
e 3 55
e 3 57
e 3 63
e 3 71
e 3 73
e 3 77
e 3 78
e 3 81
e 3 98
e 3 123
e 3 134
e 4 8
e 4 10
e 4 12
e 4 22
e 4 26
e 4 28
e 4 30
e 4 42
e 4 44
e 4 47
e 4 56
e 4 58
e 4 64
e 4 72
e 4 74
e 4 79
e 4 80
e 4 82
e 4 99
e 5 8
e 5 23
e 5 27
e 5 31
e 5 33
e 5 37
e 5 45
e 5 50
e 5 51
e 5 53
e 5 85
e 5 87
e 5 95
e 5 104
e 5 106
e 5 116
e 5 120
e 5 131
e 5 137
e 6 7
e 6 24
e 6 28
e 6 32
e 6 34
e 6 38
e 6 46
e 6 49
e 6 52
e 6 54
e 6 86
e 6 97
e 6 105
e 6 107
e 6 117
e 6 118
e 6 119
e 6 133
e 7 21
e 7 24
e 7 25
e 7 27
e 7 29
e 7 43
e 7 46
e 7 49
e 7 52
e 7 54
e 7 57
e 7 63
e 7 77
e 7 78
e 7 81
e 7 98
e 7 118
e 7 119
e 7 134
e 8 22
e 8 23
e 8 26
e 8 28
e 8 30
e 8 44
e 8 45
e 8 50
e 8 51
e 8 53
e 8 58
e 8 64
e 8 79
e 8 80
e 8 82
e 8 87
e 8 99
e 8 120
e 9 11
e 9 24
e 9 26
e 9 33
e 9 41
e 9 48
e 9 55
e 9 71
e 9 73
e 9 88
e 9 100
e 9 108
e 9 112
e 9 115
e 9 123
e 9 127
e 10 12
e 10 23
e 10 25
e 10 34
e 10 42
e 10 47
e 10 56
e 10 72
e 10 74
e 10 89
e 10 101
e 10 109
e 10 113
e 10 114
e 10 126
e 11 36
e 11 41
e 11 46
e 11 48
e 11 55
e 11 67
e 11 71
e 11 73
e 11 82
e 11 101
e 11 102
e 11 122
e 11 123
e 11 130
e 11 136
e 12 35
e 12 42
e 12 45
e 12 47
e 12 56
e 12 68
e 12 72
e 12 74
e 12 81
e 12 100
e 12 103
e 12 121
e 12 129
e 12 135
e 13 19
e 13 32
e 13 39
e 13 49
e 13 61
e 13 67
e 13 73
e 13 76
e 13 77
e 13 83
e 13 99
e 13 113
e 13 124
e 13 128
e 13 137
e 14 20
e 14 31
e 14 40
e 14 50
e 14 62
e 14 68
e 14 74
e 14 75
e 14 79
e 14 84
e 14 98
e 14 115
e 14 125
e 15 17
e 15 20
e 15 29
e 15 35
e 15 37
e 15 42
e 15 53
e 15 60
e 15 62
e 15 64
e 15 65
e 15 70
e 15 88
e 15 91
e 15 94
e 15 107
e 15 122
e 16 18
e 16 19
e 16 30
e 16 36
e 16 38
e 16 41
e 16 54
e 16 59
e 16 61
e 16 63
e 16 66
e 16 69
e 16 89
e 16 90
e 16 96
e 16 106
e 16 121
e 17 21
e 17 35
e 17 37
e 17 60
e 17 62
e 17 64
e 17 65
e 17 70
e 17 83
e 17 86
e 17 90
e 17 92
e 17 102
e 17 110
e 17 132
e 18 22
e 18 36
e 18 38
e 18 59
e 18 61
e 18 63
e 18 66
e 18 69
e 18 84
e 18 85
e 18 91
e 18 93
e 18 103
e 18 111
e 19 30
e 19 32
e 19 39
e 19 41
e 19 54
e 19 67
e 19 76
e 19 77
e 19 89
e 19 90
e 19 96
e 19 106
e 19 121
e 19 128
e 20 29
e 20 31
e 20 40
e 20 42
e 20 53
e 20 68
e 20 75
e 20 79
e 20 88
e 20 91
e 20 94
e 20 107
e 20 122
e 21 25
e 21 27
e 21 29
e 21 43
e 21 57
e 21 63
e 21 77
e 21 78
e 21 81
e 21 83
e 21 86
e 21 90
e 21 92
e 21 98
e 21 102
e 21 110
e 21 132
e 21 134
e 22 26
e 22 28
e 22 30
e 22 44
e 22 58
e 22 64
e 22 79
e 22 80
e 22 82
e 22 84
e 22 85
e 22 91
e 22 93
e 22 99
e 22 103
e 22 111
e 23 25
e 23 34
e 23 45
e 23 50
e 23 51
e 23 53
e 23 87
e 23 89
e 23 101
e 23 109
e 23 113
e 23 114
e 23 120
e 23 126
e 24 26
e 24 33
e 24 46
e 24 49
e 24 52
e 24 54
e 24 88
e 24 100
e 24 108
e 24 112
e 24 115
e 24 118
e 24 119
e 24 127
e 25 27
e 25 29
e 25 34
e 25 43
e 25 57
e 25 63
e 25 77
e 25 78
e 25 81
e 25 89
e 25 98
e 25 101
e 25 109
e 25 113
e 25 114
e 25 126
e 25 134
e 26 28
e 26 30
e 26 33
e 26 44
e 26 58
e 26 64
e 26 79
e 26 80
e 26 82
e 26 88
e 26 99
e 26 100
e 26 108
e 26 112
e 26 115
e 26 127
e 27 29
e 27 31
e 27 33
e 27 37
e 27 43
e 27 57
e 27 63
e 27 77
e 27 78
e 27 81
e 27 85
e 27 95
e 27 98
e 27 104
e 27 106
e 27 116
e 27 131
e 27 134
e 27 137
e 28 30
e 28 32
e 28 34
e 28 38
e 28 44
e 28 58
e 28 64
e 28 79
e 28 80
e 28 82
e 28 86
e 28 97
e 28 99
e 28 105
e 28 107
e 28 117
e 28 133
e 29 42
e 29 43
e 29 53
e 29 57
e 29 63
e 29 77
e 29 78
e 29 81
e 29 88
e 29 91
e 29 94
e 29 98
e 29 107
e 29 122
e 29 134
e 30 41
e 30 44
e 30 54
e 30 58
e 30 64
e 30 79
e 30 80
e 30 82
e 30 89
e 30 90
e 30 96
e 30 99
e 30 106
e 30 121
e 31 33
e 31 37
e 31 40
e 31 68
e 31 75
e 31 79
e 31 85
e 31 95
e 31 104
e 31 106
e 31 116
e 31 131
e 31 137
e 32 34
e 32 38
e 32 39
e 32 67
e 32 76
e 32 77
e 32 86
e 32 97
e 32 105
e 32 107
e 32 117
e 32 128
e 32 133
e 33 37
e 33 85
e 33 88
e 33 95
e 33 100
e 33 104
e 33 106
e 33 108
e 33 112
e 33 115
e 33 116
e 33 127
e 33 131
e 33 137
e 34 38
e 34 86
e 34 89
e 34 97
e 34 101
e 34 105
e 34 107
e 34 109
e 34 113
e 34 114
e 34 117
e 34 126
e 34 133
e 35 37
e 35 45
e 35 60
e 35 62
e 35 64
e 35 65
e 35 68
e 35 70
e 35 81
e 35 100
e 35 103
e 35 121
e 35 129
e 35 135
e 36 38
e 36 46
e 36 59
e 36 61
e 36 63
e 36 66
e 36 67
e 36 69
e 36 82
e 36 101
e 36 102
e 36 122
e 36 130
e 36 136
e 37 60
e 37 62
e 37 64
e 37 65
e 37 70
e 37 85
e 37 95
e 37 104
e 37 106
e 37 116
e 37 131
e 37 137
e 38 59
e 38 61
e 38 63
e 38 66
e 38 69
e 38 86
e 38 97
e 38 105
e 38 107
e 38 117
e 38 133
e 39 44
e 39 52
e 39 55
e 39 66
e 39 67
e 39 76
e 39 77
e 39 92
e 39 114
e 39 116
e 39 128
e 39 129
e 40 43
e 40 51
e 40 56
e 40 65
e 40 68
e 40 75
e 40 79
e 40 93
e 40 112
e 40 117
e 40 130
e 41 48
e 41 54
e 41 55
e 41 71
e 41 73
e 41 89
e 41 90
e 41 96
e 41 106
e 41 121
e 41 123
e 42 47
e 42 53
e 42 56
e 42 72
e 42 74
e 42 88
e 42 91
e 42 94
e 42 107
e 42 122
e 43 51
e 43 56
e 43 57
e 43 63
e 43 65
e 43 77
e 43 78
e 43 81
e 43 93
e 43 98
e 43 112
e 43 117
e 43 130
e 43 134
e 44 52
e 44 55
e 44 58
e 44 64
e 44 66
e 44 79
e 44 80
e 44 82
e 44 92
e 44 99
e 44 114
e 44 116
e 44 129
e 45 50
e 45 51
e 45 53
e 45 68
e 45 81
e 45 87
e 45 100
e 45 103
e 45 120
e 45 121
e 45 129
e 45 135
e 46 49
e 46 52
e 46 54
e 46 67
e 46 82
e 46 101
e 46 102
e 46 118
e 46 119
e 46 122
e 46 130
e 46 136
e 47 56
e 47 72
e 47 74
e 47 75
e 47 78
e 47 87
e 47 97
e 47 108
e 47 111
e 48 55
e 48 71
e 48 73
e 48 76
e 48 80
e 48 95
e 48 109
e 48 110
e 48 123
e 49 52
e 49 54
e 49 61
e 49 73
e 49 83
e 49 99
e 49 113
e 49 118
e 49 119
e 49 124
e 49 137
e 50 51
e 50 53
e 50 62
e 50 74
e 50 84
e 50 87
e 50 98
e 50 115
e 50 120
e 50 125
e 51 53
e 51 56
e 51 65
e 51 87
e 51 93
e 51 112
e 51 117
e 51 120
e 51 130
e 52 54
e 52 55
e 52 66
e 52 92
e 52 114
e 52 116
e 52 118
e 52 119
e 52 129
e 53 87
e 53 88
e 53 91
e 53 94
e 53 107
e 53 120
e 53 122
e 54 89
e 54 90
e 54 96
e 54 106
e 54 118
e 54 119
e 54 121
e 55 66
e 55 71
e 55 73
e 55 92
e 55 114
e 55 116
e 55 123
e 55 129
e 56 65
e 56 72
e 56 74
e 56 93
e 56 112
e 56 117
e 56 130
e 57 60
e 57 63
e 57 72
e 57 77
e 57 78
e 57 81
e 57 96
e 57 98
e 57 105
e 57 120
e 57 124
e 57 134
e 57 136
e 58 59
e 58 64
e 58 71
e 58 79
e 58 80
e 58 82
e 58 94
e 58 99
e 58 104
e 58 119
e 58 125
e 58 135
e 59 61
e 59 63
e 59 66
e 59 69
e 59 71
e 59 94
e 59 104
e 59 119
e 59 125
e 59 135
e 60 62
e 60 64
e 60 65
e 60 70
e 60 72
e 60 96
e 60 105
e 60 120
e 60 124
e 60 136
e 61 63
e 61 66
e 61 69
e 61 73
e 61 83
e 61 99
e 61 113
e 61 124
e 61 137
e 62 64
e 62 65
e 62 70
e 62 74
e 62 84
e 62 98
e 62 115
e 62 125
e 63 66
e 63 69
e 63 77
e 63 78
e 63 81
e 63 98
e 63 134
e 64 65
e 64 70
e 64 79
e 64 80
e 64 82
e 64 99
e 65 70
e 65 93
e 65 112
e 65 117
e 65 130
e 66 69
e 66 92
e 66 114
e 66 116
e 66 129
e 67 76
e 67 77
e 67 82
e 67 101
e 67 102
e 67 122
e 67 128
e 67 130
e 67 136
e 68 75
e 68 79
e 68 81
e 68 100
e 68 103
e 68 121
e 68 129
e 68 135
e 69 118
e 69 123
e 69 126
e 69 128
e 69 131
e 69 132
e 70 127
e 70 133
e 70 134
e 71 73
e 71 94
e 71 104
e 71 119
e 71 123
e 71 125
e 71 135
e 72 74
e 72 96
e 72 105
e 72 120
e 72 124
e 72 136
e 73 83
e 73 99
e 73 113
e 73 123
e 73 124
e 73 137
e 74 84
e 74 98
e 74 115
e 74 125
e 75 78
e 75 79
e 75 87
e 75 97
e 75 108
e 75 111
e 76 77
e 76 80
e 76 95
e 76 109
e 76 110
e 76 128
e 77 78
e 77 81
e 77 98
e 77 128
e 77 134
e 78 81
e 78 87
e 78 97
e 78 98
e 78 108
e 78 111
e 78 134
e 79 80
e 79 82
e 79 99
e 80 82
e 80 95
e 80 99
e 80 109
e 80 110
e 81 98
e 81 100
e 81 103
e 81 121
e 81 129
e 81 134
e 81 135
e 82 99
e 82 101
e 82 102
e 82 122
e 82 130
e 82 136
e 83 86
e 83 90
e 83 92
e 83 99
e 83 102
e 83 110
e 83 113
e 83 124
e 83 132
e 83 137
e 84 85
e 84 91
e 84 93
e 84 98
e 84 103
e 84 111
e 84 115
e 84 125
e 85 91
e 85 93
e 85 95
e 85 103
e 85 104
e 85 106
e 85 111
e 85 116
e 85 131
e 85 137
e 86 90
e 86 92
e 86 97
e 86 102
e 86 105
e 86 107
e 86 110
e 86 117
e 86 132
e 86 133
e 87 97
e 87 108
e 87 111
e 87 120
e 88 91
e 88 94
e 88 100
e 88 107
e 88 108
e 88 112
e 88 115
e 88 122
e 88 127
e 89 90
e 89 96
e 89 101
e 89 106
e 89 109
e 89 113
e 89 114
e 89 121
e 89 126
e 90 92
e 90 96
e 90 102
e 90 106
e 90 110
e 90 121
e 90 132
e 91 93
e 91 94
e 91 103
e 91 107
e 91 111
e 91 122
e 92 102
e 92 110
e 92 114
e 92 116
e 92 129
e 92 132
e 93 103
e 93 111
e 93 112
e 93 117
e 93 130
e 94 104
e 94 107
e 94 119
e 94 122
e 94 125
e 94 135
e 95 104
e 95 106
e 95 109
e 95 110
e 95 116
e 95 131
e 95 137
e 96 105
e 96 106
e 96 120
e 96 121
e 96 124
e 96 136
e 97 105
e 97 107
e 97 108
e 97 111
e 97 117
e 97 133
e 98 115
e 98 125
e 98 134
e 99 113
e 99 124
e 99 137
e 100 103
e 100 108
e 100 112
e 100 115
e 100 121
e 100 127
e 100 129
e 100 135
e 101 102
e 101 109
e 101 113
e 101 114
e 101 122
e 101 126
e 101 130
e 101 136
e 102 110
e 102 122
e 102 130
e 102 132
e 102 136
e 103 111
e 103 121
e 103 129
e 103 135
e 104 106
e 104 116
e 104 119
e 104 125
e 104 131
e 104 135
e 104 137
e 105 107
e 105 117
e 105 120
e 105 124
e 105 133
e 105 136
e 106 116
e 106 121
e 106 131
e 106 137
e 107 117
e 107 122
e 107 133
e 108 111
e 108 112
e 108 115
e 108 127
e 109 110
e 109 113
e 109 114
e 109 126
e 110 132
e 112 115
e 112 117
e 112 127
e 112 130
e 113 114
e 113 124
e 113 126
e 113 137
e 114 116
e 114 126
e 114 129
e 115 125
e 115 127
e 116 129
e 116 131
e 116 137
e 117 130
e 117 133
e 118 119
e 118 123
e 118 126
e 118 128
e 118 131
e 118 132
e 119 125
e 119 135
e 120 124
e 120 136
e 121 129
e 121 135
e 122 130
e 122 136
e 123 126
e 123 128
e 123 131
e 123 132
e 124 136
e 124 137
e 125 135
e 126 128
e 126 131
e 126 132
e 127 133
e 127 134
e 128 131
e 128 132
e 129 135
e 130 136
e 131 132
e 131 137
e 133 134
